
GUB cover cuts applied:  5
Clique cuts applied:  1
Cover cuts applied:  9
Implied bound cuts applied:  9
Mixed integer rounding cuts applied:  5
Zero-half cuts applied:  14
Multi commodity flow cuts applied:  2
Gomory fractional cuts applied:  1

Root node processing (before b&c):
  Real time             =    0.03 sec. (22.98 ticks)
Parallel b&c, 4 threads:
  Real time             =    0.00 sec. (0.00 ticks)
  Sync time (average)   =    0.00 sec.
  Wait time (average)   =    0.00 sec.
                          ------------
Total (root+branch&cut) =    0.03 sec. (22.98 ticks)
Version identifier: 12.10.0.0 | 2019-11-26 | 843d4de
CPXPARAM_MIP_Interval                            10
CPXPARAM_MIP_Tolerances_AbsMIPGap                0.98999999999999999
Tried aggregator 2 times.
MIP Presolve eliminated 1559 rows and 734 columns.
MIP Presolve added 4 rows and 0 columns.
MIP Presolve modified 90 coefficients.
Aggregator did 11 substitutions.
Reduced MIP has 730 rows, 122 columns, and 1632 nonzeros.
Reduced MIP has 95 binaries, 27 generals, 0 SOSs, and 0 indicators.
Presolve time = 0.00 sec. (3.04 ticks)
Found incumbent of value 4.000000 after 0.01 sec. (4.74 ticks)
Probing fixed 0 vars, tightened 6 bounds.
Probing time = 0.00 sec. (0.35 ticks)
Cover probing fixed 0 vars, tightened 16 bounds.
Tried aggregator 1 time.
Detecting symmetries...
MIP Presolve eliminated 502 rows and 0 columns.
MIP Presolve modified 20 coefficients.
Reduced MIP has 228 rows, 122 columns, and 628 nonzeros.
Reduced MIP has 95 binaries, 27 generals, 0 SOSs, and 0 indicators.
Presolve time = 0.00 sec. (0.71 ticks)
Probing fixed 0 vars, tightened 5 bounds.
Probing time = 0.00 sec. (0.14 ticks)
Cover probing fixed 0 vars, tightened 14 bounds.
Clique table members: 168.
MIP emphasis: balance optimality and feasibility.
MIP search method: dynamic search.
Parallel mode: deterministic, using up to 4 threads.
Root relaxation solution time = 0.00 sec. (1.07 ticks)

        Nodes                                         Cuts/
   Node  Left     Objective  IInf  Best Integer    Best Bound    ItCnt     Gap

*     0+    0                            4.0000       28.0000           600.00%
*     0+    0                           14.0000       28.0000           100.00%
      0     0       17.8333    43       14.0000       17.8333      138   27.38%
      0     0       17.6667    43       14.0000      Cuts: 24      194   26.19%
      0     0       17.6667    43       14.0000      Cuts: 76      272   26.19%
      0     0       17.6667    43       14.0000       Cuts: 8      281   26.19%
      0     0       17.6667    43       14.0000      Cuts: 29      324   26.19%
*     0+    0                           16.0000       17.6667            10.42%
      0     0        cutoff             16.0000       16.0000      324    0.00%
Elapsed time = 0.06 sec. (28.37 ticks, tree = 0.01 MB, solutions = 3)
the number of Nodes = 0
